unknown
(:binary-propagations  2208
 :decisions            748
 :del-clause           708
 :final-checks         3
 :max-generation       1
 :max-memory           31.74
 :memory               23.13
 :mk-bool-var          4397
 :mk-clause            1052
 :mk-clause-binary     2689
 :num-allocs           224151453
 :num-checks           1
 :propagations         2370
 :quant-instantiations 708
 :restarts             2
 :rlimit-count         1629953
 :time                 0.31)
